HFSDDW
20	6	2
0	71	1	75
0	71	1	72
0	98	1	34
0	22	1	16
0	15	1	88
0	69	1	39
0	34	1	86
0	89	1	75
0	49	1	49
0	45	1	89
0	24	1	54
0	65	1	63
0	16	1	9
0	59	1	37
0	89	1	53
0	18	1	82
0	90	1	21
0	27	1	4
0	43	1	91
0	72	1	96
LBCmax: 396
RELDUE
-1	229	7	8
-1	157	3	6
-1	197	7	8
-1	202	5	2
-1	204	6	8
-1	197	3	6
-1	169	7	5
-1	290	4	1
-1	322	2	3
-1	352	3	8
-1	177	8	8
-1	138	5	9
-1	336	3	1
-1	148	9	8
-1	222	7	1
-1	159	9	4
-1	142	4	8
-1	138	2	6
-1	253	9	7
-1	334	6	5
DDW
208	250
155	159
193	201
200	204
190	218
183	211
162	176
276	304
299	345
338	366
159	195
127	149
306	366
136	160
220	224
145	173
136	148
132	144
243	263
311	357
